c Random Network
p max    10      20
n         1  s
n        10  t
a       6       7      30
a       5       3      26
a       2       5      10
a       2      10      36
a       3       5      24
a       7       2      45
a       6       2      28
a      10       8      40
a       5       2      33
a       1       5      40
a      10       9      34
a       9       3      35
a       2       9      46
a       4       2      30
a      10       2      36
a       2       6      45
a       4       6      18
a       6       5      29
a       3       9      13
a       9      10       9
